SAT
Model:
1 -> false
2 -> true
3 -> false
4 -> false
5 -> false
6 -> false
7 -> true
8 -> true
9 -> false
10 -> false
11 -> true
12 -> true
13 -> true
14 -> true
15 -> true
16 -> true
17 -> false
18 -> false
19 -> true
20 -> false
21 -> true
22 -> false
23 -> true
24 -> true
25 -> false
26 -> false
27 -> false
28 -> true
29 -> true
30 -> true
31 -> true
32 -> true
33 -> false
34 -> false
35 -> true
36 -> false
37 -> false
38 -> true
39 -> true
40 -> false
41 -> true
42 -> false
43 -> false
44 -> true
45 -> false
46 -> true
47 -> false
48 -> false
49 -> true
50 -> true
